(set-logic QF_S)
(declare-fun var0 () String)
(declare-fun var1 () String)
(declare-fun var2 () String)
(declare-fun var3 () Int)
(declare-fun var4 () Int)
(declare-fun var5 () Int)
(declare-fun var6 () Bool)
(declare-fun var7 () Bool)
(declare-fun var8 () Bool)
(assert (str.suffixof (str.at (str.replace var1 var2 var1) (str.indexof var0 var0 var4)) (str.substr var0 var4 var3)))
(assert (str.contains (str.at (str.substr var1 var3 var3) (str.indexof var0 var2 var4)) (str.substr var0 var3 var5)))
(assert (str.suffixof var0 "xrK[*:xdJX"))
(assert (>= (str.len (str.replace var2 var1 var1)) (str.to.int (str.at var0 var5))))
(check-sat)